DIMACS_lns/graph-1000-915.col
p edge 1000 1845
e 1 364
e 1 601
e 1 535
e 2 941
e 2 336
e 2 91
e 2 604
e 5 862
e 5 915
e 5 61
e 5 266
e 5 34
e 5 43
e 5 792
e 6 510
e 6 487
e 6 700
e 7 838
e 7 395
e 7 866
e 7 356
e 9 680
e 9 517
e 9 256
e 9 438
e 9 263
e 9 396
e 10 988
e 10 801
e 10 246
e 10 411
e 10 399
e 11 676
e 11 144
e 11 638
e 11 97
e 12 735
e 12 405
e 12 626
e 12 128
e 13 607
e 13 263
e 13 882
e 13 422
e 14 595
e 14 563
e 14 608
e 14 163
e 16 951
e 16 874
e 16 713
e 16 560
e 17 371
e 17 635
e 17 646
e 17 330
e 19 380
e 19 502
e 19 808
e 20 801
e 20 752
e 20 589
e 20 680
e 20 432
e 22 669
e 22 284
e 22 692
e 23 748
e 23 76
e 23 412
e 23 777
e 23 673
e 23 110
e 25 360
e 25 773
e 25 289
e 25 494
e 27 537
e 27 691
e 27 611
e 27 849
e 30 796
e 30 217
e 30 654
e 30 478
e 30 985
e 30 59
e 30 99
e 31 454
e 31 742
e 31 113
e 31 910
e 32 963
e 32 364
e 32 609
e 32 416
e 32 530
e 32 615
e 33 106
e 33 84
e 33 186
e 33 581
e 33 181
e 33 453
e 34 645
e 34 531
e 34 427
e 36 514
e 36 182
e 36 188
e 36 759
e 36 910
e 36 706
e 36 433
e 37 463
e 37 936
e 37 229
e 37 476
e 37 168
e 37 739
e 38 144
e 38 599
e 38 774
e 38 716
e 38 476
e 39 966
e 39 768
e 39 545
e 39 274
e 40 242
e 40 527
e 40 795
e 41 907
e 41 248
e 41 470
e 41 420
e 41 213
e 41 236
e 41 492
e 41 514
e 41 240
e 41 529
e 42 713
e 42 675
e 42 217
e 42 843
e 42 650
e 42 266
e 42 664
e 42 966
e 42 259
e 43 609
e 43 453
e 43 129
e 43 919
e 44 718
e 44 879
e 44 674
e 48 579
e 48 181
e 48 863
e 50 611
e 50 842
e 50 397
e 50 65
e 53 213
e 53 723
e 53 287
e 53 607
e 53 752
e 53 732
e 53 988
e 54 307
e 54 101
e 54 459
e 54 738
e 54 498
e 55 761
e 55 459
e 55 276
e 55 324
e 55 829
e 56 392
e 56 534
e 56 72
e 57 831
e 57 952
e 57 700
e 58 999
e 58 198
e 58 418
e 59 307
e 59 941
e 60 825
e 60 724
e 60 960
e 60 400
e 61 580
e 61 791
e 61 741
e 61 917
e 61 163
e 62 645
e 62 119
e 62 499
e 63 394
e 63 999
e 63 803
e 63 791
e 63 778
e 63 418
e 63 905
e 63 725
e 64 719
e 64 542
e 64 867
e 65 885
e 65 856
e 65 904
e 65 761
e 65 793
e 65 328
e 65 735
e 67 750
e 67 395
e 67 608
e 67 786
e 67 887
e 67 198
e 69 643
e 69 870
e 69 368
e 69 70
e 69 72
e 70 571
e 70 215
e 70 324
e 70 266
e 70 518
e 70 276
e 70 850
e 70 567
e 71 342
e 71 893
e 71 289
e 71 462
e 72 678
e 72 671
e 72 122
e 73 574
e 73 319
e 73 708
e 73 505
e 73 947
e 73 291
e 75 913
e 75 427
e 75 737
e 76 749
e 76 876
e 76 972
e 76 303
e 76 171
e 76 540
e 78 903
e 78 582
e 78 709
e 79 691
e 79 614
e 79 708
e 79 559
e 79 884
e 79 917
e 79 797
e 82 884
e 82 739
e 82 339
e 82 638
e 82 987
e 82 828
e 83 393
e 83 723
e 83 473
e 83 106
e 83 398
e 84 517
e 84 116
e 84 919
e 84 386
e 85 197
e 85 633
e 85 93
e 86 329
e 86 633
e 86 281
e 87 619
e 87 848
e 87 257
e 87 518
e 89 505
e 89 584
e 89 588
e 90 736
e 90 597
e 90 159
e 90 812
e 91 99
e 91 787
e 91 631
e 91 615
e 91 605
e 91 894
e 91 628
e 92 219
e 92 820
e 92 442
e 93 692
e 93 994
e 93 97
e 93 239
e 93 203
e 93 796
e 93 533
e 93 107
e 94 638
e 94 940
e 94 991
e 95 676
e 95 961
e 95 958
e 95 125
e 95 470
e 95 117
e 95 904
e 95 166
e 97 407
e 97 991
e 97 851
e 98 298
e 98 201
e 98 376
e 98 501
e 98 856
e 99 709
e 99 454
e 99 799
e 99 121
e 99 401
e 100 268
e 100 961
e 100 290
e 100 188
e 101 628
e 101 711
e 101 913
e 101 997
e 102 249
e 102 557
e 102 858
e 102 713
e 103 277
e 103 985
e 103 532
e 103 715
e 103 679
e 103 904
e 103 231
e 103 125
e 103 612
e 104 940
e 104 741
e 104 717
e 104 691
e 104 200
e 105 442
e 105 305
e 105 886
e 105 486
e 105 238
e 105 570
e 106 305
e 106 584
e 106 112
e 107 763
e 107 160
e 107 393
e 107 934
e 107 909
e 109 725
e 109 703
e 109 420
e 110 141
e 110 250
e 110 489
e 110 669
e 110 824
e 111 879
e 111 295
e 111 181
e 112 666
e 112 586
e 113 766
e 113 186
e 115 704
e 115 823
e 115 916
e 115 480
e 115 719
e 116 742
e 116 673
e 117 461
e 117 282
e 119 967
e 119 690
e 119 800
e 119 611
e 119 561
e 120 136
e 120 691
e 120 443
e 121 937
e 121 414
e 122 609
e 122 611
e 122 426
e 122 783
e 124 429
e 124 636
e 124 129
e 124 964
e 124 434
e 125 942
e 125 610
e 126 181
e 126 499
e 126 772
e 126 691
e 126 397
e 126 882
e 127 336
e 127 516
e 127 878
e 127 525
e 128 255
e 128 450
e 128 995
e 129 649
e 129 348
e 129 204
e 129 149
e 130 389
e 130 730
e 130 610
e 130 198
e 130 701
e 130 586
e 131 734
e 131 314
e 131 324
e 131 816
e 132 473
e 132 423
e 132 274
e 133 287
e 133 587
e 133 978
e 133 524
e 136 186
e 136 225
e 136 965
e 136 878
e 137 607
e 137 785
e 137 472
e 137 912
e 137 634
e 137 767
e 139 578
e 139 905
e 139 917
e 139 761
e 139 157
e 141 482
e 141 673
e 141 634
e 141 177
e 141 906
e 142 644
e 142 863
e 142 331
e 142 839
e 142 849
e 143 710
e 143 803
e 143 749
e 143 569
e 143 750
e 143 628
e 143 914
e 143 199
e 144 805
e 144 639
e 144 616
e 144 750
e 146 446
e 146 617
e 146 623
e 146 604
e 147 157
e 147 450
e 147 996
e 147 309
e 147 701
e 147 596
e 148 411
e 148 293
e 148 218
e 149 250
e 149 454
e 149 164
e 151 368
e 151 152
e 151 976
e 151 542
e 151 489
e 152 845
e 152 989
e 152 364
e 153 371
e 153 558
e 153 317
e 155 899
e 155 269
e 155 809
e 156 549
e 156 616
e 156 944
e 156 650
e 156 379
e 157 601
e 157 383
e 157 509
e 157 570
e 157 999
e 157 500
e 157 463
e 158 376
e 158 198
e 158 490
e 158 825
e 158 446
e 158 453
e 159 956
e 159 965
e 159 182
e 159 368
e 159 635
e 160 704
e 160 198
e 160 300
e 160 631
e 160 564
e 161 959
e 161 646
e 161 499
e 161 218
e 161 654
e 163 392
e 163 693
e 163 174
e 163 718
e 163 246
e 163 624
e 164 442
e 164 692
e 166 848
e 166 866
e 167 397
e 167 344
e 167 356
e 168 240
e 168 623
e 169 194
e 169 734
e 169 604
e 169 602
e 170 641
e 170 574
e 170 284
e 170 235
e 170 622
e 170 816
e 171 318
e 171 405
e 171 462
e 171 819
e 171 633
e 171 955
e 172 378
e 172 480
e 172 203
e 172 880
e 173 584
e 173 831
e 173 697
e 173 560
e 174 676
e 174 475
e 174 796
e 176 480
e 176 719
e 176 666
e 176 529
e 177 929
e 177 658
e 177 337
e 177 198
e 177 278
e 178 677
e 178 680
e 178 825
e 178 895
e 181 804
e 181 577
e 181 664
e 181 520
e 182 276
e 182 495
e 182 423
e 183 215
e 183 229
e 183 584
e 183 531
e 184 882
e 184 954
e 184 828
e 184 377
e 184 670
e 185 604
e 185 958
e 185 610
e 185 607
e 186 441
e 186 726
e 186 384
e 188 535
e 188 863
e 188 739
e 188 672
e 188 871
e 188 533
e 189 897
e 189 547
e 189 778
e 189 197
e 189 881
e 190 768
e 190 967
e 190 857
e 190 454
e 191 627
e 191 570
e 191 826
e 192 646
e 192 303
e 192 783
e 192 867
e 194 299
e 194 643
e 194 489
e 194 358
e 195 905
e 195 227
e 195 561
e 195 717
e 197 766
e 197 855
e 197 770
e 198 214
e 198 876
e 198 660
e 198 955
e 199 829
e 199 909
e 199 823
e 200 265
e 200 410
e 201 353
e 201 776
e 201 713
e 202 650
e 202 666
e 202 896
e 203 236
e 203 433
e 203 912
e 203 227
e 203 618
e 203 405
e 204 783
e 204 761
e 204 648
e 204 802
e 206 735
e 206 533
e 206 437
e 206 726
e 206 792
e 207 558
e 207 980
e 207 855
e 207 573
e 207 543
e 207 931
e 207 452
e 207 738
e 207 838
e 208 247
e 208 948
e 208 757
e 208 298
e 209 785
e 209 676
e 209 534
e 209 794
e 209 357
e 209 885
e 209 648
e 209 981
e 210 278
e 210 855
e 210 951
e 210 809
e 211 978
e 211 869
e 211 519
e 211 885
e 212 249
e 212 901
e 212 988
e 212 770
e 213 652
e 213 929
e 214 224
e 214 502
e 214 881
e 214 749
e 214 691
e 215 648
e 215 858
e 215 615
e 215 525
e 217 644
e 217 449
e 217 864
e 217 980
e 218 722
e 218 795
e 219 453
e 219 966
e 219 923
e 220 785
e 220 497
e 220 277
e 220 441
e 220 915
e 221 492
e 221 274
e 221 738
e 221 946
e 222 548
e 222 446
e 222 931
e 222 426
e 223 502
e 223 795
e 223 834
e 224 830
e 224 478
e 224 786
e 225 713
e 225 407
e 225 554
e 227 673
e 227 549
e 227 421
e 227 703
e 227 593
e 228 495
e 228 845
e 228 278
e 228 785
e 229 571
e 229 625
e 229 399
e 229 596
e 229 735
e 230 586
e 230 772
e 230 569
e 231 654
e 231 550
e 235 871
e 235 926
e 236 420
e 236 742
e 236 366
e 236 471
e 236 546
e 237 949
e 237 617
e 237 436
e 237 880
e 238 823
e 238 469
e 238 584
e 238 607
e 239 458
e 239 481
e 239 942
e 240 623
e 240 285
e 241 679
e 241 655
e 241 501
e 241 563
e 241 247
e 242 642
e 242 830
e 246 843
e 247 420
e 247 723
e 247 766
e 248 318
e 248 461
e 248 622
e 249 525
e 249 422
e 249 318
e 250 527
e 250 951
e 250 914
e 252 525
e 252 554
e 252 389
e 252 855
e 252 924
e 254 496
e 254 524
e 254 502
e 255 942
e 255 863
e 255 536
e 255 871
e 255 588
e 256 941
e 256 809
e 256 658
e 257 447
e 257 910
e 257 309
e 259 527
e 259 984
e 259 497
e 259 550
e 262 533
e 262 703
e 262 984
e 262 518
e 263 829
e 263 800
e 263 516
e 265 785
e 265 310
e 265 567
e 265 920
e 265 322
e 266 926
e 266 442
e 266 508
e 266 419
e 266 978
e 267 700
e 267 554
e 267 790
e 267 704
e 268 380
e 268 282
e 269 990
e 269 891
e 269 533
e 270 393
e 270 671
e 270 956
e 273 932
e 273 616
e 273 557
e 273 287
e 274 842
e 274 922
e 274 903
e 274 749
e 274 601
e 274 394
e 275 327
e 275 482
e 275 625
e 275 376
e 277 770
e 278 489
e 278 446
e 278 376
e 279 483
e 279 510
e 279 991
e 279 926
e 281 601
e 281 651
e 281 561
e 282 597
e 282 867
e 282 803
e 282 452
e 283 397
e 283 421
e 283 594
e 283 719
e 284 661
e 285 633
e 285 824
e 286 546
e 286 660
e 286 601
e 287 304
e 287 647
e 287 301
e 289 383
e 289 718
e 290 463
e 290 830
e 290 886
e 290 500
e 291 901
e 291 832
e 291 915
e 293 831
e 293 787
e 293 420
e 294 593
e 294 455
e 294 795
e 294 938
e 294 506
e 294 676
e 295 787
e 295 463
e 295 597
e 297 577
e 297 773
e 297 857
e 298 778
e 298 524
e 298 966
e 299 730
e 299 964
e 299 869
e 300 990
e 300 919
e 300 342
e 301 802
e 301 655
e 303 608
e 304 786
e 304 395
e 304 392
e 304 827
e 304 518
e 304 809
e 304 768
e 305 351
e 305 816
e 305 914
e 305 539
e 305 604
e 306 879
e 306 515
e 306 923
e 307 791
e 307 671
e 307 916
e 307 440
e 309 561
e 309 712
e 309 990
e 310 898
e 310 859
e 310 604
e 310 838
e 310 988
e 310 668
e 310 389
e 311 698
e 311 438
e 311 979
e 311 837
e 314 418
e 314 867
e 314 694
e 317 723
e 317 336
e 317 619
e 317 871
e 317 383
e 317 812
e 318 450
e 318 867
e 319 353
e 319 985
e 319 523
e 319 327
e 319 987
e 322 646
e 322 599
e 322 760
e 324 519
e 325 388
e 325 891
e 325 804
e 325 360
e 325 445
e 327 739
e 327 596
e 328 601
e 328 687
e 329 926
e 329 437
e 330 795
e 330 736
e 331 418
e 331 871
e 331 731
e 336 697
e 336 949
e 336 919
e 337 690
e 337 760
e 337 746
e 339 808
e 339 837
e 342 869
e 342 794
e 343 887
e 343 631
e 343 547
e 343 397
e 343 479
e 343 709
e 343 605
e 343 423
e 344 614
e 344 708
e 346 376
e 346 482
e 346 531
e 348 644
e 348 803
e 348 385
e 349 397
e 349 843
e 349 670
e 349 486
e 350 617
e 350 540
e 350 425
e 350 729
e 351 646
e 351 445
e 353 556
e 353 422
e 353 360
e 356 966
e 357 619
e 357 657
e 358 761
e 358 573
e 358 902
e 358 850
e 358 638
e 360 912
e 360 589
e 360 552
e 360 624
e 360 420
e 363 779
e 363 691
e 363 516
e 364 596
e 364 370
e 364 887
e 364 401
e 364 876
e 366 496
e 366 479
e 366 772
e 368 391
e 368 400
e 368 925
e 368 906
e 369 847
e 369 958
e 369 995
e 369 639
e 369 946
e 369 713
e 370 814
e 370 863
e 371 450
e 374 852
e 374 502
e 374 778
e 374 408
e 376 672
e 376 496
e 376 535
e 376 941
e 377 831
e 377 863
e 377 472
e 378 847
e 378 915
e 378 785
e 379 815
e 379 565
e 380 946
e 380 535
e 380 949
e 382 944
e 382 481
e 382 899
e 383 589
e 383 987
e 383 614
e 383 726
e 383 870
e 384 679
e 384 698
e 385 725
e 385 799
e 385 394
e 385 627
e 385 886
e 385 595
e 386 387
e 386 536
e 386 680
e 386 916
e 386 810
e 387 650
e 387 475
e 388 791
e 388 649
e 388 653
e 389 814
e 391 799
e 391 400
e 391 395
e 392 954
e 392 616
e 393 614
e 393 687
e 393 859
e 393 879
e 393 819
e 394 909
e 394 919
e 396 760
e 396 917
e 396 774
e 396 547
e 397 411
e 397 402
e 398 828
e 398 994
e 399 642
e 399 737
e 399 749
e 400 979
e 400 716
e 400 614
e 401 693
e 402 616
e 402 810
e 404 751
e 404 852
e 404 411
e 405 882
e 405 936
e 406 708
e 406 543
e 406 847
e 407 887
e 407 487
e 408 694
e 408 594
e 408 542
e 408 616
e 410 767
e 410 829
e 410 862
e 411 674
e 411 517
e 412 630
e 412 690
e 412 469
e 413 514
e 413 782
e 413 455
e 413 448
e 414 658
e 414 580
e 414 996
e 415 628
e 415 731
e 415 469
e 415 944
e 416 593
e 416 657
e 416 660
e 419 932
e 419 614
e 419 773
e 420 495
e 421 864
e 421 572
e 421 787
e 421 643
e 421 967
e 421 480
e 421 653
e 422 783
e 422 580
e 422 568
e 422 747
e 423 712
e 423 920
e 423 731
e 425 717
e 425 779
e 426 652
e 426 438
e 426 934
e 427 475
e 429 885
e 429 942
e 430 878
e 430 947
e 430 459
e 432 746
e 432 547
e 432 938
e 433 791
e 433 718
e 434 677
e 434 692
e 436 945
e 436 711
e 437 509
e 437 616
e 437 903
e 437 931
e 438 819
e 438 826
e 438 735
e 438 825
e 438 932
e 438 489
e 440 945
e 440 689
e 440 716
e 441 473
e 441 663
e 442 999
e 442 989
e 442 747
e 443 574
e 443 830
e 443 560
e 445 463
e 445 803
e 446 779
e 446 722
e 447 545
e 447 618
e 448 730
e 448 558
e 448 857
e 448 989
e 448 664
e 449 782
e 449 872
e 450 579
e 450 571
e 452 913
e 452 952
e 453 652
e 454 622
e 454 998
e 454 970
e 454 572
e 454 942
e 454 814
e 455 771
e 455 692
e 455 934
e 458 651
e 458 795
e 459 462
e 461 922
e 467 647
e 467 589
e 467 947
e 467 552
e 469 945
e 470 970
e 470 954
e 471 887
e 471 948
e 471 699
e 471 748
e 471 512
e 471 816
e 471 943
e 472 730
e 472 586
e 473 622
e 473 793
e 474 568
e 474 587
e 474 719
e 475 737
e 476 516
e 476 696
e 476 480
e 476 852
e 476 582
e 476 859
e 478 699
e 478 837
e 479 878
e 479 956
e 479 943
e 480 520
e 481 841
e 482 827
e 482 652
e 482 898
e 482 631
e 483 827
e 483 578
e 486 708
e 486 940
e 486 924
e 487 828
e 487 509
e 489 577
e 489 492
e 490 819
e 490 961
e 492 531
e 492 712
e 492 819
e 494 922
e 494 785
e 494 559
e 495 903
e 496 599
e 497 938
e 498 617
e 498 943
e 499 803
e 499 611
e 500 669
e 500 555
e 501 713
e 502 568
e 505 996
e 505 558
e 505 874
e 506 532
e 506 785
e 506 980
e 506 878
e 508 704
e 508 751
e 509 872
e 510 746
e 512 978
e 512 925
e 512 857
e 514 577
e 515 635
e 515 949
e 517 763
e 517 973
e 518 650
e 518 648
e 519 954
e 519 588
e 520 826
e 521 889
e 521 850
e 521 941
e 523 929
e 523 797
e 523 660
e 524 548
e 524 571
e 524 614
e 524 893
e 527 633
e 527 791
e 527 985
e 527 876
e 527 729
e 529 883
e 529 937
e 529 960
e 529 537
e 530 748
e 530 997
e 531 698
e 531 700
e 532 742
e 533 663
e 534 671
e 535 617
e 535 901
e 535 637
e 536 641
e 536 594
e 536 787
e 537 934
e 537 915
e 539 748
e 539 739
e 539 880
e 540 645
e 540 558
e 540 822
e 540 791
e 542 843
e 542 625
e 543 729
e 543 630
e 545 617
e 545 555
e 546 710
e 546 660
e 547 573
e 547 825
e 547 701
e 547 804
e 547 596
e 547 858
e 548 613
e 549 686
e 550 616
e 551 584
e 551 801
e 551 868
e 551 715
e 552 891
e 552 709
e 552 867
e 552 878
e 554 616
e 555 790
e 555 746
e 555 894
e 555 791
e 555 767
e 556 848
e 556 557
e 558 588
e 558 837
e 558 914
e 559 838
e 559 985
e 560 751
e 560 905
e 560 583
e 560 842
e 561 896
e 562 819
e 562 732
e 562 899
e 563 852
e 563 586
e 563 587
e 563 709
e 563 567
e 564 808
e 564 883
e 564 990
e 565 978
e 565 964
e 565 693
e 565 851
e 567 923
e 568 634
e 568 752
e 568 677
e 569 687
e 570 831
e 570 578
e 570 704
e 571 796
e 571 651
e 572 959
e 572 745
e 572 788
e 573 858
e 574 829
e 574 958
e 578 870
e 579 973
e 579 788
e 580 924
e 581 859
e 581 849
e 582 657
e 583 878
e 583 674
e 584 795
e 584 771
e 584 710
e 587 588
e 587 626
e 587 830
e 588 913
e 589 672
e 589 616
e 589 848
e 593 914
e 593 716
e 594 800
e 594 983
e 595 848
e 595 745
e 596 931
e 597 856
e 597 959
e 599 829
e 601 858
e 601 722
e 602 960
e 602 963
e 602 856
e 602 912
e 604 937
e 605 910
e 605 700
e 605 925
e 605 805
e 606 903
e 606 936
e 606 699
e 608 816
e 609 901
e 610 708
e 610 834
e 611 976
e 612 663
e 612 797
e 612 882
e 612 651
e 613 955
e 613 738
e 614 670
e 615 639
e 615 626
e 616 839
e 616 989
e 616 832
e 617 624
e 618 646
e 618 820
e 619 723
e 620 863
e 620 956
e 620 819
e 620 642
e 622 889
e 624 991
e 625 909
e 626 661
e 627 945
e 628 714
e 630 715
e 630 980
e 630 773
e 631 772
e 631 759
e 633 747
e 633 738
e 634 904
e 635 674
e 636 692
e 636 653
e 636 747
e 636 793
e 637 661
e 637 934
e 639 831
e 639 763
e 640 645
e 640 912
e 640 872
e 641 951
e 642 782
e 644 822
e 644 896
e 645 857
e 646 680
e 646 936
e 647 893
e 648 715
e 649 676
e 649 793
e 650 663
e 651 903
e 652 757
e 653 834
e 653 675
e 654 763
e 655 945
e 657 878
e 657 966
e 658 713
e 660 922
e 661 996
e 663 673
e 663 686
e 663 761
e 663 987
e 663 675
e 664 926
e 668 887
e 668 929
e 669 760
e 670 701
e 670 783
e 670 770
e 670 991
e 672 729
e 672 944
e 672 691
e 673 680
e 674 857
e 677 847
e 678 963
e 678 904
e 678 808
e 679 696
e 679 943
e 680 881
e 686 717
e 686 970
e 687 694
e 687 779
e 689 714
e 689 827
e 690 897
e 692 751
e 692 926
e 692 717
e 693 774
e 694 858
e 696 802
e 696 724
e 697 801
e 697 886
e 698 779
e 698 864
e 698 932
e 698 881
e 698 863
e 699 708
e 699 894
e 700 925
e 701 808
e 703 938
e 706 788
e 706 800
e 708 723
e 709 830
e 711 886
e 712 752
e 712 729
e 714 736
e 714 963
e 717 895
e 717 741
e 719 776
e 722 741
e 722 827
e 723 879
e 723 883
e 723 786
e 724 830
e 725 779
e 727 959
e 727 761
e 727 903
e 730 800
e 732 834
e 732 983
e 734 947
e 736 774
e 737 952
e 737 878
e 738 851
e 739 817
e 741 980
e 741 747
e 745 805
e 746 897
e 748 895
e 749 841
e 749 839
e 751 792
e 752 987
e 757 940
e 757 820
e 759 976
e 760 937
e 760 810
e 767 822
e 768 879
e 768 983
e 771 867
e 771 941
e 772 884
e 772 849
e 773 941
e 774 983
e 776 880
e 776 958
e 777 889
e 777 782
e 778 817
e 778 916
e 779 944
e 782 834
e 783 850
e 785 966
e 788 980
e 790 852
e 790 966
e 791 984
e 792 896
e 793 843
e 794 876
e 795 909
e 796 906
e 796 912
e 799 837
e 800 814
e 801 981
e 801 819
e 802 940
e 804 907
e 808 885
e 810 882
e 812 825
e 812 942
e 814 981
e 815 849
e 815 925
e 817 862
e 817 868
e 820 929
e 824 973
e 824 902
e 825 891
e 825 936
e 826 951
e 830 983
e 830 955
e 830 972
e 830 886
e 831 954
e 831 922
e 832 897
e 838 998
e 839 916
e 841 867
e 842 866
e 843 889
e 845 858
e 849 955
e 849 963
e 850 925
e 856 867
e 864 926
e 864 952
e 867 999
e 867 893
e 868 998
e 870 942
e 874 958
e 874 963
e 879 937
e 880 916
e 882 886
e 885 889
e 885 964
e 893 972
e 893 988
e 896 963
e 896 899
e 898 959
e 898 973
e 902 976
e 904 920
e 907 952
e 907 910
e 914 947
e 917 956
e 920 988
e 924 934
e 929 994
e 929 947
e 931 952
e 941 979
e 942 997
e 945 981
e 946 995
e 947 989
e 947 960
e 948 989
e 951 964
e 965 979
e 970 978
e 994 997
